c Random CNF formula
p cnf 1000 20
-606 928 -753 0
-932 561 952 0
-722 982 785 0
-55 -124 6 0
289 -122 103 0
-242 -557 -30 0
959 697 1 0
-439 453 -543 0
-48 -802 17 0
239 -687 -94 0
-948 639 -543 0
-784 550 888 0
593 -132 789 0
-37 997 -265 0
-506 -242 -785 0
50 -635 -447 0
-713 266 -418 0
-162 -133 -596 0
734 704 584 0
711 -468 151 0